networks/zoo_64_992/zoo_64_992.txt
Number of groups: 32
Flow 8: {5 6} {6 10} {10 9} {9 41} 
Flow 9: {10 42} 
Flow 16: {10 18} {18 17} {17 49} 
Flow 19: {1 4} {4 23} {23 31} {31 20} {20 52} 
Flow 21: {26 22} {22 54} 
Flow 27: {24 3} {3 13} {13 28} {28 60} 
Flow 38: {2 7} {7 8} {8 40} 
Flow 42: {31 12} {12 44} 
Flow 46: {17 16} {16 48} 
Flow 63: {4 1} {1 33} 
Flow 71: {5 6} {6 10} {10 42} 
Flow 72: {28 29} {29 12} {12 11} {11 43} 
Flow 144: {16 15} {15 21} {21 53} 
Flow 219: {8 7} {7 2} {2 34} 
Flow 222: {7 5} {5 37} 
Flow 253: {10 6} Flow 257: {9 10} {10 42} 
Flow 273: {15 26} {26 58} 
Flow 313: {29 28} {28 13} {13 3} {3 35} 
Flow 338: {11 12} {12 29} {29 61} 
Flow 376: {3 24} {24 4} {4 36} 
Flow 434: {14 31} {31 32} {32 64} 
Flow 563: {19 10} {10 6} {6 5} {5 37} 
Flow 564: {10 6} {6 38} 
Flow 567: {19 10} {10 9} {9 41} 
Flow 568: {19 10} {10 42} 
Flow 588: {6 5} {5 7} {7 31} {31 63} 
Flow 607: {6 10} {10 18} {18 50} 
Flow 612: {23 4} {4 24} {24 56} 
Flow 618: {20 31} {31 30} {30 62} 
Flow 638: {21 15} {15 16} {16 17} {17 18} {18 50} 
Flow 657: {10 6} {6 38} 
Flow 670: {18 10} {10 19} {19 51} 
Flow 677: {22 26} {26 27} {27 59} 
Flow 699: {18 17} {17 49} 
Flow 726: {13 45} 
Flow 759: {25 15} {15 47} 
Flow 798: {27 12} {12 31} {31 23} {23 55} 
Flow 906: {30 31} {31 7} {7 39} 
Flow 924: {12 27} {27 26} {26 15} {15 25} {25 57} 
Flow 936: {5 6} {6 38} 
Flow 975: {32 31} {31 14} {14 46} 
Flow 978: {5 6} {6 10} {10 18} {18 17} {17 49} 
Time taken running everything: 11 seconds
