networks/zoo_64_992/zoo_64_992.sol
<?xml version = "1.0" encoding="UTF-8" standalone="yes"?>
<CPLEXSolution version="1.2">
 <header
   problemName="networks/zoo_64_992/zoo_64_992.lp"
   solutionName="incumbent"
   solutionIndex="-1"
   objectiveValue="32"
   solutionTypeValue="3"
   solutionTypeString="primal"
   solutionStatusValue="101"
   solutionStatusString="integer optimal solution"
   solutionMethodString="mip"
   primalFeasible="1"
   dualFeasible="1"
   MIPNodes="0"
   MIPIterations="2635"
   writeLevel="3"/>
 <quality
   epInt="1.0000000000000001e-05"
   epRHS="9.9999999999999995e-07"
   maxIntInfeas="0"
   maxPrimalInfeas="0"
   maxX="4"
   maxSlack="10"/>
 <variables>
  <variable name="Y(2,3)" index="66" value="1"/>
  <variable name="Y(3,4)" index="131" value="1"/>
  <variable name="Y(8,9)" index="456" value="1"/>
  <variable name="Y(15,16)" index="911" value="1"/>
  <variable name="Y(18,19)" index="1106" value="1"/>
  <variable name="Y(27,28)" index="1691" value="1"/>
  <variable name="Y(32,1)" index="1984" value="1"/>
  <variable name="Y(42,12)" index="2635" value="1"/>
  <variable name="Y(43,13)" index="2700" value="1"/>
  <variable name="Y(87,26)" index="5529" value="1"/>
  <variable name="Y(91,30)" index="5789" value="1"/>
  <variable name="Y(219,2)" index="13953" value="1"/>
  <variable name="Y(233,17)" index="14864" value="1"/>
  <variable name="Y(255,7)" index="16262" value="1"/>
  <variable name="Y(265,18)" index="16913" value="1"/>
  <variable name="Y(338,29)" index="21596" value="1"/>
  <variable name="Y(434,32)" index="27743" value="1"/>
  <variable name="Y(471,6)" index="30085" value="1"/>
  <variable name="Y(520,25)" index="33240" value="1"/>
  <variable name="Y(532,5)" index="33988" value="1"/>
  <variable name="Y(568,10)" index="36297" value="1"/>
  <variable name="Y(603,14)" index="38541" value="1"/>
  <variable name="Y(619,31)" index="39582" value="1"/>
  <variable name="Y(635,15)" index="40590" value="1"/>
  <variable name="Y(641,22)" index="40981" value="1"/>
  <variable name="Y(677,27)" index="43290" value="1"/>
  <variable name="Y(765,21)" index="48916" value="1"/>
  <variable name="Y(798,23)" index="51030" value="1"/>
  <variable name="Y(848,11)" index="54218" value="1"/>
  <variable name="Y(892,24)" index="57047" value="1"/>
  <variable name="Y(907,8)" index="57991" value="1"/>
  <variable name="Y(981,20)" index="62739" value="1"/>
  <variable name="X(1,4,3)" index="63490" value="1"/>
  <variable name="X(1,33,32)" index="64511" value="1"/>
  <variable name="X(2,7,42)" index="65513" value="1"/>
  <variable name="X(2,34,219)" index="66682" value="1"/>
  <variable name="X(3,13,27)" index="67482" value="1"/>
  <variable name="X(3,24,892)" index="69339" value="1"/>
  <variable name="X(3,35,2)" index="69441" value="1"/>
  <variable name="X(4,1,32)" index="70463" value="1"/>
  <variable name="X(4,23,91)" index="71514" value="1"/>
  <variable name="X(4,24,2)" index="72417" value="1"/>
  <variable name="X(4,36,3)" index="73410" value="1"/>
  <variable name="X(5,6,18)" index="74417" value="1"/>
  <variable name="X(5,7,255)" index="75646" value="1"/>
  <variable name="X(5,37,532)" index="76915" value="1"/>
  <variable name="X(6,5,532)" index="77907" value="1"/>
  <variable name="X(6,10,18)" index="78385" value="1"/>
  <variable name="X(6,38,471)" index="79830" value="1"/>
  <variable name="X(7,2,219)" index="80570" value="1"/>
  <variable name="X(7,5,18)" index="81361" value="1"/>
  <variable name="X(7,8,907)" index="83242" value="1"/>
  <variable name="X(7,31,42)" index="83369" value="1"/>
  <variable name="X(7,39,255)" index="84574" value="1"/>
  <variable name="X(8,7,219)" index="85530" value="1"/>
  <variable name="X(8,40,907)" index="87210" value="1"/>
  <variable name="X(9,10,265)" index="87560" value="1"/>
  <variable name="X(9,41,8)" index="88295" value="1"/>
  <variable name="X(10,6,471)" index="89750" value="1"/>
  <variable name="X(10,9,8)" index="90279" value="1"/>
  <variable name="X(10,18,265)" index="91528" value="1"/>
  <variable name="X(10,19,18)" index="92273" value="1"/>
  <variable name="X(10,42,568)" index="93815" value="1"/>
  <variable name="X(11,12,338)" index="94577" value="1"/>
  <variable name="X(11,43,848)" index="96079" value="1"/>
  <variable name="X(12,11,848)" index="97071" value="1"/>
  <variable name="X(12,27,87)" index="97302" value="1"/>
  <variable name="X(12,29,338)" index="98545" value="1"/>
  <variable name="X(12,31,798)" index="99997" value="1"/>
  <variable name="X(12,44,42)" index="100233" value="1"/>
  <variable name="X(13,3,892)" index="102075" value="1"/>
  <variable name="X(13,28,27)" index="102202" value="1"/>
  <variable name="X(13,45,43)" index="103210" value="1"/>
  <variable name="X(14,31,434)" index="104593" value="1"/>
  <variable name="X(14,46,603)" index="105754" value="1"/>
  <variable name="X(15,16,15)" index="106158" value="1"/>
  <variable name="X(15,21,765)" index="107900" value="1"/>
  <variable name="X(15,25,520)" index="108647" value="1"/>
  <variable name="X(15,26,641)" index="109760" value="1"/>
  <variable name="X(15,47,635)" index="110746" value="1"/>
  <variable name="X(16,15,520)" index="111623" value="1"/>
  <variable name="X(16,17,471)" index="112566" value="1"/>
  <variable name="X(16,48,15)" index="113102" value="1"/>
  <variable name="X(17,16,520)" index="114599" value="1"/>
  <variable name="X(17,18,471)" index="115542" value="1"/>
  <variable name="X(17,49,233)" index="116296" value="1"/>
  <variable name="X(18,10,471)" index="117526" value="1"/>
  <variable name="X(18,17,233)" index="118280" value="1"/>
  <variable name="X(18,50,265)" index="119304" value="1"/>
  <variable name="X(19,10,568)" index="120599" value="1"/>
  <variable name="X(19,51,18)" index="121041" value="1"/>
  <variable name="X(20,31,603)" index="122618" value="1"/>
  <variable name="X(20,52,981)" index="123988" value="1"/>
  <variable name="X(21,15,641)" index="124640" value="1"/>
  <variable name="X(21,53,765)" index="125756" value="1"/>
  <variable name="X(22,26,677)" index="126660" value="1"/>
  <variable name="X(22,54,641)" index="127616" value="1"/>
  <variable name="X(23,4,32)" index="127999" value="1"/>
  <variable name="X(23,31,91)" index="129050" value="1"/>
  <variable name="X(23,55,798)" index="130749" value="1"/>
  <variable name="X(24,3,2)" index="130945" value="1"/>
  <variable name="X(24,4,91)" index="132026" value="1"/>
  <variable name="X(24,56,892)" index="133819" value="1"/>
  <variable name="X(25,15,765)" index="134684" value="1"/>
  <variable name="X(25,57,520)" index="135431" value="1"/>
  <variable name="X(26,15,15)" index="135918" value="1"/>
  <variable name="X(26,22,641)" index="137536" value="1"/>
  <variable name="X(26,27,677)" index="138564" value="1"/>
  <variable name="X(26,58,87)" index="138966" value="1"/>
  <variable name="X(27,12,798)" index="140669" value="1"/>
  <variable name="X(27,26,87)" index="140950" value="1"/>
  <variable name="X(27,59,677)" index="142532" value="1"/>
  <variable name="X(28,13,43)" index="142890" value="1"/>
  <variable name="X(28,29,87)" index="143926" value="1"/>
  <variable name="X(28,60,27)" index="144858" value="1"/>
  <variable name="X(29,12,87)" index="145910" value="1"/>
  <variable name="X(29,28,43)" index="146858" value="1"/>
  <variable name="X(29,61,338)" index="148145" value="1"/>
  <variable name="X(30,31,907)" index="149706" value="1"/>
  <variable name="X(30,62,91)" index="149882" value="1"/>
  <variable name="X(31,7,907)" index="151690" value="1"/>
  <variable name="X(31,12,42)" index="151817" value="1"/>
  <variable name="X(31,14,603)" index="153370" value="1"/>
  <variable name="X(31,20,981)" index="154740" value="1"/>
  <variable name="X(31,23,798)" index="155549" value="1"/>
  <variable name="X(31,30,91)" index="155834" value="1"/>
  <variable name="X(31,32,434)" index="157169" value="1"/>
  <variable name="X(31,63,619)" index="158346" value="1"/>
  <variable name="X(32,31,981)" index="159700" value="1"/>
  <variable name="X(32,64,434)" index="160145" value="1"/>
  <variable name="C(2,24)" index="160712" value="1"/>
  <variable name="C(2,3)" index="160713" value="2"/>
  <variable name="C(3,4)" index="160715" value="1"/>
  <variable name="C(8,9)" index="160748" value="1"/>
  <variable name="C(15,15)" index="160793" value="1"/>
  <variable name="C(15,16)" index="160794" value="2"/>
  <variable name="C(18,5)" index="160819" value="1"/>
  <variable name="C(18,6)" index="160820" value="2"/>
  <variable name="C(18,10)" index="160821" value="3"/>
  <variable name="C(18,19)" index="160822" value="4"/>
  <variable name="C(27,13)" index="160877" value="1"/>
  <variable name="C(27,28)" index="160878" value="2"/>
  <variable name="C(32,4)" index="160903" value="1"/>
  <variable name="C(32,1)" index="160904" value="2"/>
  <variable name="C(42,7)" index="160946" value="1"/>
  <variable name="C(42,31)" index="160947" value="2"/>
  <variable name="C(42,12)" index="160948" value="3"/>
  <variable name="C(43,28)" index="160954" value="1"/>
  <variable name="C(43,13)" index="160955" value="2"/>
  <variable name="C(87,29)" index="161232" value="1"/>
  <variable name="C(87,12)" index="161233" value="2"/>
  <variable name="C(87,27)" index="161234" value="3"/>
  <variable name="C(87,26)" index="161235" value="4"/>
  <variable name="C(91,4)" index="161251" value="1"/>
  <variable name="C(91,23)" index="161252" value="2"/>
  <variable name="C(91,31)" index="161253" value="3"/>
  <variable name="C(91,30)" index="161254" value="4"/>
  <variable name="C(219,7)" index="161887" value="1"/>
  <variable name="C(219,2)" index="161888" value="2"/>
  <variable name="C(233,17)" index="161962" value="1"/>
  <variable name="C(255,7)" index="162089" value="1"/>
  <variable name="C(265,10)" index="162146" value="1"/>
  <variable name="C(265,18)" index="162147" value="2"/>
  <variable name="C(338,12)" index="162566" value="1"/>
  <variable name="C(338,29)" index="162567" value="2"/>
  <variable name="C(434,31)" index="163052" value="1"/>
  <variable name="C(434,32)" index="163053" value="2"/>
  <variable name="C(471,17)" index="163259" value="1"/>
  <variable name="C(471,18)" index="163260" value="2"/>
  <variable name="C(471,10)" index="163261" value="3"/>
  <variable name="C(471,6)" index="163262" value="4"/>
  <variable name="C(520,16)" index="163540" value="1"/>
  <variable name="C(520,15)" index="163541" value="2"/>
  <variable name="C(520,25)" index="163542" value="3"/>
  <variable name="C(532,5)" index="163626" value="1"/>
  <variable name="C(568,10)" index="163832" value="1"/>
  <variable name="C(603,31)" index="164042" value="1"/>
  <variable name="C(603,14)" index="164043" value="2"/>
  <variable name="C(641,15)" index="164265" value="1"/>
  <variable name="C(641,26)" index="164266" value="2"/>
  <variable name="C(641,22)" index="164267" value="3"/>
  <variable name="C(677,26)" index="164479" value="1"/>
  <variable name="C(677,27)" index="164480" value="2"/>
  <variable name="C(765,15)" index="164973" value="1"/>
  <variable name="C(765,21)" index="164974" value="2"/>
  <variable name="C(798,12)" index="165149" value="1"/>
  <variable name="C(798,31)" index="165150" value="2"/>
  <variable name="C(798,23)" index="165151" value="3"/>
  <variable name="C(848,11)" index="165393" value="1"/>
  <variable name="C(892,3)" index="165625" value="1"/>
  <variable name="C(892,24)" index="165626" value="2"/>
  <variable name="C(907,31)" index="165685" value="1"/>
  <variable name="C(907,7)" index="165686" value="2"/>
  <variable name="C(907,8)" index="165687" value="3"/>
  <variable name="C(981,31)" index="166029" value="1"/>
  <variable name="C(981,20)" index="166030" value="2"/>
 </variables>
</CPLEXSolution>
